(set-logic QF_BV)
(declare-fun clock_1 () (_ BitVec 1))
(declare-fun clock_2 () (_ BitVec 1))
(declare-fun clock_3 () (_ BitVec 1))
(declare-fun linea_2 () (_ BitVec 1))
(declare-fun reset_1 () (_ BitVec 1))
(declare-fun reset_2 () (_ BitVec 1))
(declare-fun reset_3 () (_ BitVec 1))
(declare-fun stato_2 () (_ BitVec 4))
(declare-fun u_1 () (_ BitVec 1))
(declare-fun u_0 () (_ BitVec 1))
(define-fun $e1 () (_ BitVec 4) (_ bv0 4))
(define-fun $e2 () (_ BitVec 4) (_ bv14 4))
(define-fun $e3 () (_ BitVec 4) (_ bv2 4))
(define-fun $e4 () (_ BitVec 4) (_ bv12 4))
(define-fun $e5 () (_ BitVec 4) (_ bv4 4))
(define-fun $e6 () (_ BitVec 4) (_ bv10 4))
(define-fun $e7 () (_ BitVec 4) (_ bv6 4))
(define-fun $e8 () (_ BitVec 1) (ite (= clock_1 clock_2) #b1 #b0))
(define-fun $e9 () (_ BitVec 1) (ite (= reset_1 reset_2) #b1 #b0))
(define-fun $e10 () (_ BitVec 1) (bvand $e8 $e9))
(define-fun $e11 () (_ BitVec 1) (bvand clock_1 (bvnot $e8)))
(define-fun $e12 () (_ BitVec 1) (ite (= clock_2 clock_3) #b1 #b0))
(define-fun $e13 () (_ BitVec 1) (ite (= reset_2 reset_3) #b1 #b0))
(define-fun $e14 () (_ BitVec 1) (bvand $e12 $e13))
(define-fun $e15 () (_ BitVec 1) (bvand clock_2 (bvnot $e12)))
(define-fun $e16 () (_ BitVec 1) (ite (= stato_2 $e1) #b1 #b0))
(define-fun $e17 () (_ BitVec 1) (ite (= stato_2 (bvnot $e2)) #b1 #b0))
(define-fun $e18 () (_ BitVec 1) (ite (= stato_2 $e3) #b1 #b0))
(define-fun $e19 () (_ BitVec 1) (ite (= stato_2 (bvnot $e4)) #b1 #b0))
(define-fun $e20 () (_ BitVec 1) (ite (= stato_2 $e5) #b1 #b0))
(define-fun $e21 () (_ BitVec 1) (ite (= stato_2 (bvnot $e6)) #b1 #b0))
(define-fun $e22 () (_ BitVec 1) (ite (= stato_2 $e7) #b1 #b0))
(define-fun $e23 () (_ BitVec 1) (bvand (bvnot linea_2) $e22))
(define-fun $e24 () (_ BitVec 1) (bvand (bvnot $e16) (bvnot $e22)))
(define-fun $e25 () (_ BitVec 1) (bvand (bvnot $e23) (bvnot $e24)))
(define-fun $e26 () (_ BitVec 1) (bvand (bvnot $e21) $e25))
(define-fun $e27 () (_ BitVec 1) (bvand (bvnot $e20) $e26))
(define-fun $e28 () (_ BitVec 1) (bvand (bvnot $e19) $e27))
(define-fun $e29 () (_ BitVec 1) (bvand (bvnot $e18) $e28))
(define-fun $e30 () (_ BitVec 1) (bvand (bvnot $e17) $e29))
(define-fun $e31 () (_ BitVec 1) (bvand (bvnot $e16) $e30))
(define-fun $e32 () (_ BitVec 1) (bvand $e15 (bvnot $e31)))
(define-fun $e33 () (_ BitVec 1) (bvand (bvnot $e15) (bvnot $e16)))
(define-fun $e34 () (_ BitVec 1) (bvand (bvnot $e32) (bvnot $e33)))
(define-fun $e35 () (_ BitVec 1) (bvand (bvnot reset_2) (bvnot $e34)))
(define-fun $e36 () (_ BitVec 1) (bvand $e14 (bvnot $e16)))
(define-fun $e37 () (_ BitVec 1) (bvand (bvnot $e14) $e35))
(define-fun $e38 () (_ BitVec 1) (bvand (bvnot $e36) (bvnot $e37)))
(define-fun $e39 () (_ BitVec 1) (bvand (bvnot $e17) (bvnot $e20)))
(define-fun $e40 () (_ BitVec 1) (bvand (bvnot $e19) (bvnot $e39)))
(define-fun $e41 () (_ BitVec 1) (bvand (bvnot $e18) $e40))
(define-fun $e42 () (_ BitVec 1) (bvand (bvnot $e17) $e41))
(define-fun $e43 () (_ BitVec 1) (bvand (bvnot $e16) (bvnot $e42)))
(define-fun $e44 () (_ BitVec 1) (bvand $e15 $e43))
(define-fun $e45 () (_ BitVec 1) (bvand (bvnot $e15) (bvnot $e17)))
(define-fun $e46 () (_ BitVec 1) (bvand (bvnot $e44) (bvnot $e45)))
(define-fun $e47 () (_ BitVec 1) (bvand (bvnot reset_2) $e46))
(define-fun $e48 () (_ BitVec 1) (bvand $e14 (bvnot $e17)))
(define-fun $e49 () (_ BitVec 1) (bvand (bvnot $e14) (bvnot $e47)))
(define-fun $e50 () (_ BitVec 1) (bvand (bvnot $e48) (bvnot $e49)))
(define-fun $e51 () (_ BitVec 1) (bvand (bvnot linea_2) $e17))
(define-fun $e52 () (_ BitVec 1) (bvand (bvnot $e16) $e51))
(define-fun $e53 () (_ BitVec 1) (bvand $e15 (bvnot $e52)))
(define-fun $e54 () (_ BitVec 1) (bvand (bvnot $e15) (bvnot $e18)))
(define-fun $e55 () (_ BitVec 1) (bvand (bvnot $e53) (bvnot $e54)))
(define-fun $e56 () (_ BitVec 1) (bvand (bvnot reset_2) $e55))
(define-fun $e57 () (_ BitVec 1) (bvand $e14 (bvnot $e18)))
(define-fun $e58 () (_ BitVec 1) (bvand (bvnot $e14) (bvnot $e56)))
(define-fun $e59 () (_ BitVec 1) (bvand (bvnot $e57) (bvnot $e58)))
(define-fun $e60 () (_ BitVec 1) (bvand (bvnot linea_2) $e18))
(define-fun $e61 () (_ BitVec 1) (bvand (bvnot $e17) $e60))
(define-fun $e62 () (_ BitVec 1) (bvand (bvnot $e16) $e61))
(define-fun $e63 () (_ BitVec 1) (bvand $e15 (bvnot $e62)))
(define-fun $e64 () (_ BitVec 1) (bvand (bvnot $e15) (bvnot $e19)))
(define-fun $e65 () (_ BitVec 1) (bvand (bvnot $e63) (bvnot $e64)))
(define-fun $e66 () (_ BitVec 1) (bvand (bvnot reset_2) $e65))
(define-fun $e67 () (_ BitVec 1) (bvand $e14 (bvnot $e19)))
(define-fun $e68 () (_ BitVec 1) (bvand (bvnot $e14) (bvnot $e66)))
(define-fun $e69 () (_ BitVec 1) (bvand (bvnot $e67) (bvnot $e68)))
(define-fun $e70 () (_ BitVec 1) (bvand linea_2 $e22))
(define-fun $e71 () (_ BitVec 1) (bvand (bvnot $e20) (bvnot $e22)))
(define-fun $e72 () (_ BitVec 1) (bvand (bvnot $e70) (bvnot $e71)))
(define-fun $e73 () (_ BitVec 1) (bvand (bvnot $e21) $e72))
(define-fun $e74 () (_ BitVec 1) (bvand (bvnot $e20) $e73))
(define-fun $e75 () (_ BitVec 1) (bvand (bvnot $e19) (bvnot $e74)))
(define-fun $e76 () (_ BitVec 1) (bvand (bvnot $e18) (bvnot $e75)))
(define-fun $e77 () (_ BitVec 1) (bvand (bvnot $e17) $e76))
(define-fun $e78 () (_ BitVec 1) (bvand (bvnot $e16) $e77))
(define-fun $e79 () (_ BitVec 1) (bvand $e15 (bvnot $e78)))
(define-fun $e80 () (_ BitVec 1) (bvand (bvnot $e15) (bvnot $e20)))
(define-fun $e81 () (_ BitVec 1) (bvand (bvnot $e79) (bvnot $e80)))
(define-fun $e82 () (_ BitVec 1) (bvand (bvnot reset_2) $e81))
(define-fun $e83 () (_ BitVec 1) (bvand $e14 (bvnot $e20)))
(define-fun $e84 () (_ BitVec 1) (bvand (bvnot $e14) (bvnot $e82)))
(define-fun $e85 () (_ BitVec 1) (bvand (bvnot $e83) (bvnot $e84)))
(define-fun $e86 () (_ BitVec 1) (bvand linea_2 $e17))
(define-fun $e87 () (_ BitVec 1) (bvand (bvnot $e16) $e86))
(define-fun $e88 () (_ BitVec 1) (bvand $e15 (bvnot $e87)))
(define-fun $e89 () (_ BitVec 1) (bvand (bvnot $e15) (bvnot $e21)))
(define-fun $e90 () (_ BitVec 1) (bvand (bvnot $e88) (bvnot $e89)))
(define-fun $e91 () (_ BitVec 1) (bvand (bvnot reset_2) $e90))
(define-fun $e92 () (_ BitVec 1) (bvand $e14 (bvnot $e21)))
(define-fun $e93 () (_ BitVec 1) (bvand (bvnot $e14) (bvnot $e91)))
(define-fun $e94 () (_ BitVec 1) (bvand (bvnot $e92) (bvnot $e93)))
(define-fun $e95 () (_ BitVec 1) (bvand (bvnot $e18) (bvnot $e21)))
(define-fun $e96 () (_ BitVec 1) (bvand (bvnot $e60) (bvnot $e95)))
(define-fun $e97 () (_ BitVec 1) (bvand (bvnot $e17) $e96))
(define-fun $e98 () (_ BitVec 1) (bvand (bvnot $e16) $e97))
(define-fun $e99 () (_ BitVec 1) (bvand $e15 (bvnot $e98)))
(define-fun $e100 () (_ BitVec 1) (bvand (bvnot $e15) (bvnot $e22)))
(define-fun $e101 () (_ BitVec 1) (bvand (bvnot $e99) (bvnot $e100)))
(define-fun $e102 () (_ BitVec 1) (bvand (bvnot reset_2) $e101))
(define-fun $e103 () (_ BitVec 1) (bvand $e14 (bvnot $e22)))
(define-fun $e104 () (_ BitVec 1) (bvand (bvnot $e14) (bvnot $e102)))
(define-fun $e105 () (_ BitVec 1) (bvand (bvnot $e103) (bvnot $e104)))
(define-fun $e106 () (_ BitVec 1) (ite (= u_1 u_0) #b1 #b0))
(define-fun $e107 () (_ BitVec 1) (bvand u_0 $e105))
(define-fun $e108 () (_ BitVec 1) (bvand (bvnot $e105) (bvnot $e106)))
(define-fun $e109 () (_ BitVec 1) (bvand (bvnot $e107) (bvnot $e108)))
(define-fun $e110 () (_ BitVec 1) (bvand u_0 $e94))
(define-fun $e111 () (_ BitVec 1) (bvand (bvnot $e94) (bvnot $e109)))
(define-fun $e112 () (_ BitVec 1) (bvand (bvnot $e110) (bvnot $e111)))
(define-fun $e113 () (_ BitVec 1) (bvand (bvnot u_0) $e85))
(define-fun $e114 () (_ BitVec 1) (bvand (bvnot $e85) (bvnot $e112)))
(define-fun $e115 () (_ BitVec 1) (bvand (bvnot $e113) (bvnot $e114)))
(define-fun $e116 () (_ BitVec 1) (bvand u_0 $e69))
(define-fun $e117 () (_ BitVec 1) (bvand (bvnot $e69) (bvnot $e115)))
(define-fun $e118 () (_ BitVec 1) (bvand (bvnot $e116) (bvnot $e117)))
(define-fun $e119 () (_ BitVec 1) (bvand u_0 $e59))
(define-fun $e120 () (_ BitVec 1) (bvand (bvnot $e59) (bvnot $e118)))
(define-fun $e121 () (_ BitVec 1) (bvand (bvnot $e119) (bvnot $e120)))
(define-fun $e122 () (_ BitVec 1) (bvand u_0 $e50))
(define-fun $e123 () (_ BitVec 1) (bvand (bvnot $e50) (bvnot $e121)))
(define-fun $e124 () (_ BitVec 1) (bvand (bvnot $e122) (bvnot $e123)))
(define-fun $e125 () (_ BitVec 1) (bvand u_0 $e38))
(define-fun $e126 () (_ BitVec 1) (bvand (bvnot $e38) (bvnot $e124)))
(define-fun $e127 () (_ BitVec 1) (bvand (bvnot $e125) (bvnot $e126)))
(define-fun $e128 () (_ BitVec 1) (bvand $e11 (bvnot $e127)))
(define-fun $e129 () (_ BitVec 1) (bvand (bvnot $e11) (bvnot $e106)))
(define-fun $e130 () (_ BitVec 1) (bvand (bvnot $e128) (bvnot $e129)))
(define-fun $e131 () (_ BitVec 1) (bvand reset_1 u_0))
(define-fun $e132 () (_ BitVec 1) (bvand (bvnot reset_1) (bvnot $e130)))
(define-fun $e133 () (_ BitVec 1) (bvand (bvnot $e131) (bvnot $e132)))
(define-fun $e134 () (_ BitVec 1) (bvand $e10 (bvnot $e106)))
(define-fun $e135 () (_ BitVec 1) (bvand (bvnot $e10) (bvnot $e133)))
(assert (not (= (bvnot $e134) #b0)))
(assert (not (= (bvnot $e135) #b0)))
(check-sat)
(exit)
